p cnf 561 1447
c uncontrollable inputs:
a 1 2 5 6 9 11 13 0
c state variables:
a 16 17 18 19 20 21 22 23 24 25 26 27 28 29 30 31 32 33 34 35 36 37 38 39 40 41 42 43 44 45 46 0
c next state variables:
a 47 48 49 50 51 52 53 54 55 56 57 58 59 60 61 62 63 64 65 66 67 68 69 70 71 72 73 74 75 76 77 0
c controllable inputs
d 3 1 2 5 6 9 11 13 16 17 18 19 20 21 22 23 24 25 26 27 28 29 30 31 32 33 34 35 36 37 38 39 40 41 42 43 44 45 46 0
d 4 1 2 5 6 9 11 13 16 17 18 19 20 21 22 23 24 25 26 27 28 29 30 31 32 33 34 35 36 37 38 39 40 41 42 43 44 45 46 0
d 7 1 2 5 6 9 11 13 16 17 18 19 20 21 22 23 24 25 26 27 28 29 30 31 32 33 34 35 36 37 38 39 40 41 42 43 44 45 46 0
d 8 1 2 5 6 9 11 13 16 17 18 19 20 21 22 23 24 25 26 27 28 29 30 31 32 33 34 35 36 37 38 39 40 41 42 43 44 45 46 0
d 10 1 2 5 6 9 11 13 16 17 18 19 20 21 22 23 24 25 26 27 28 29 30 31 32 33 34 35 36 37 38 39 40 41 42 43 44 45 46 0
d 12 1 2 5 6 9 11 13 16 17 18 19 20 21 22 23 24 25 26 27 28 29 30 31 32 33 34 35 36 37 38 39 40 41 42 43 44 45 46 0
d 14 1 2 5 6 9 11 13 16 17 18 19 20 21 22 23 24 25 26 27 28 29 30 31 32 33 34 35 36 37 38 39 40 41 42 43 44 45 46 0
d 15 1 2 5 6 9 11 13 16 17 18 19 20 21 22 23 24 25 26 27 28 29 30 31 32 33 34 35 36 37 38 39 40 41 42 43 44 45 46 0
c winning region (state)
d 78 16 17 18 19 20 21 22 23 24 25 26 27 28 29 30 31 32 33 34 35 36 37 38 39 40 41 42 43 44 45 46 0
c winning region (next state)
d 79 47 48 49 50 51 52 53 54 55 56 57 58 59 60 61 62 63 64 65 66 67 68 69 70 71 72 73 74 75 76 77 0
c tseitin variables
e 80 81 82 83 84 85 86 87 88 89 90 91 92 93 94 95 96 97 98 99 100 101 102 103 104 105 106 107 108 109 110 111 112 113 114 115 116 117 118 119 120 121 122 123 124 125 126 127 128 129 130 131 132 133 134 135 136 137 138 139 140 141 142 143 144 145 146 147 148 149 150 151 152 153 154 155 156 157 158 159 160 161 162 163 164 165 166 167 168 169 170 171 172 173 174 175 176 177 178 179 180 181 182 183 184 185 186 187 188 189 190 191 192 193 194 195 196 197 198 199 200 201 202 203 204 205 206 207 208 209 210 211 212 213 214 215 216 217 218 219 220 221 222 223 224 225 226 227 228 229 230 231 232 233 234 235 236 237 238 239 240 241 242 243 244 245 246 247 248 249 250 251 252 253 254 255 256 257 258 259 260 261 262 263 264 265 266 267 268 269 270 271 272 273 274 275 276 277 278 279 280 281 282 283 284 285 286 287 288 289 290 291 292 293 294 295 296 297 298 299 300 301 302 303 304 305 306 307 308 309 310 311 312 313 314 315 316 317 318 319 320 321 322 323 324 325 326 327 328 329 330 331 332 333 334 335 336 337 338 339 340 341 342 343 344 345 346 347 348 349 350 351 352 353 354 355 356 357 358 359 360 361 362 363 364 365 366 367 368 369 370 371 372 373 374 375 376 377 378 379 380 381 382 383 384 385 386 387 388 389 390 391 392 393 394 395 396 397 398 399 400 401 402 403 404 405 406 407 408 409 410 411 412 413 414 415 416 417 418 419 420 421 422 423 424 425 426 427 428 429 430 431 432 433 434 435 436 437 438 439 440 441 442 443 444 445 446 447 448 449 450 451 452 453 454 455 456 457 458 459 460 461 462 463 464 465 466 467 468 469 470 471 472 473 474 475 476 477 478 479 480 481 482 483 484 485 486 487 488 489 490 491 492 493 494 495 496 497 498 499 500 501 502 503 504 505 506 507 508 509 510 511 512 513 514 515 516 517 518 519 520 521 522 523 524 525 526 527 528 529 530 531 532 533 534 535 536 537 538 539 540 541 542 543 544 545 546 547 548 549 550 551 552 553 554 555 556 557 558 559 560 561 0
c clauses:
-80 -47 0
-80 16 0
80 47 -16 0
-81 47 0
-81 -16 0
81 -47 16 0
-82 -80 0
-82 -81 0
82 80 81 0
-83 -48 0
-83 17 0
83 48 -17 0
-84 48 0
-84 -17 0
84 -48 17 0
-85 -83 0
-85 -84 0
85 83 84 0
-86 82 0
-86 85 0
86 -82 -85 0
-87 -49 0
-87 18 0
87 49 -18 0
-88 49 0
-88 -18 0
88 -49 18 0
-89 -87 0
-89 -88 0
89 87 88 0
-90 -50 0
-90 19 0
90 50 -19 0
-91 50 0
-91 -19 0
91 -50 19 0
-92 -90 0
-92 -91 0
92 90 91 0
-93 89 0
-93 92 0
93 -89 -92 0
-94 86 0
-94 93 0
94 -86 -93 0
-95 -51 0
-95 20 0
95 51 -20 0
-96 51 0
-96 -20 0
96 -51 20 0
-97 -95 0
-97 -96 0
97 95 96 0
-98 -52 0
-98 21 0
98 52 -21 0
-99 52 0
-99 -21 0
99 -52 21 0
-100 -98 0
-100 -99 0
100 98 99 0
-101 97 0
-101 100 0
101 -97 -100 0
-102 -53 0
-102 22 0
102 53 -22 0
-103 53 0
-103 -22 0
103 -53 22 0
-104 -102 0
-104 -103 0
104 102 103 0
-105 -54 0
-105 23 0
105 54 -23 0
-106 54 0
-106 -23 0
106 -54 23 0
-107 -105 0
-107 -106 0
107 105 106 0
-108 104 0
-108 107 0
108 -104 -107 0
-109 101 0
-109 108 0
109 -101 -108 0
-110 94 0
-110 109 0
110 -94 -109 0
-111 -55 0
-111 24 0
111 55 -24 0
-112 55 0
-112 -24 0
112 -55 24 0
-113 -111 0
-113 -112 0
113 111 112 0
-114 -56 0
-114 25 0
114 56 -25 0
-115 56 0
-115 -25 0
115 -56 25 0
-116 -114 0
-116 -115 0
116 114 115 0
-117 113 0
-117 116 0
117 -113 -116 0
-118 -57 0
-118 26 0
118 57 -26 0
-119 57 0
-119 -26 0
119 -57 26 0
-120 -118 0
-120 -119 0
120 118 119 0
-121 -58 0
-121 27 0
121 58 -27 0
-122 58 0
-122 -27 0
122 -58 27 0
-123 -121 0
-123 -122 0
123 121 122 0
-124 120 0
-124 123 0
124 -120 -123 0
-125 117 0
-125 124 0
125 -117 -124 0
-126 -59 0
-126 28 0
126 59 -28 0
-127 59 0
-127 -28 0
127 -59 28 0
-128 -126 0
-128 -127 0
128 126 127 0
-129 -60 0
-129 29 0
129 60 -29 0
-130 60 0
-130 -29 0
130 -60 29 0
-131 -129 0
-131 -130 0
131 129 130 0
-132 128 0
-132 131 0
132 -128 -131 0
-133 -61 0
-133 30 0
133 61 -30 0
-134 61 0
-134 -30 0
134 -61 30 0
-135 -133 0
-135 -134 0
135 133 134 0
-136 -62 0
-136 31 0
136 62 -31 0
-137 62 0
-137 -31 0
137 -62 31 0
-138 -136 0
-138 -137 0
138 136 137 0
-139 135 0
-139 138 0
139 -135 -138 0
-140 132 0
-140 139 0
140 -132 -139 0
-141 125 0
-141 140 0
141 -125 -140 0
-142 110 0
-142 141 0
142 -110 -141 0
-143 -63 0
-143 32 0
143 63 -32 0
-144 63 0
-144 -32 0
144 -63 32 0
-145 -143 0
-145 -144 0
145 143 144 0
-146 -64 0
-146 33 0
146 64 -33 0
-147 64 0
-147 -33 0
147 -64 33 0
-148 -146 0
-148 -147 0
148 146 147 0
-149 145 0
-149 148 0
149 -145 -148 0
-150 -65 0
-150 34 0
150 65 -34 0
-151 65 0
-151 -34 0
151 -65 34 0
-152 -150 0
-152 -151 0
152 150 151 0
-153 -66 0
-153 35 0
153 66 -35 0
-154 66 0
-154 -35 0
154 -66 35 0
-155 -153 0
-155 -154 0
155 153 154 0
-156 152 0
-156 155 0
156 -152 -155 0
-157 149 0
-157 156 0
157 -149 -156 0
-158 -67 0
-158 36 0
158 67 -36 0
-159 67 0
-159 -36 0
159 -67 36 0
-160 -158 0
-160 -159 0
160 158 159 0
-161 -68 0
-161 37 0
161 68 -37 0
-162 68 0
-162 -37 0
162 -68 37 0
-163 -161 0
-163 -162 0
163 161 162 0
-164 160 0
-164 163 0
164 -160 -163 0
-165 -69 0
-165 38 0
165 69 -38 0
-166 69 0
-166 -38 0
166 -69 38 0
-167 -165 0
-167 -166 0
167 165 166 0
-168 -70 0
-168 39 0
168 70 -39 0
-169 70 0
-169 -39 0
169 -70 39 0
-170 -168 0
-170 -169 0
170 168 169 0
-171 167 0
-171 170 0
171 -167 -170 0
-172 164 0
-172 171 0
172 -164 -171 0
-173 157 0
-173 172 0
173 -157 -172 0
-174 -71 0
-174 40 0
174 71 -40 0
-175 71 0
-175 -40 0
175 -71 40 0
-176 -174 0
-176 -175 0
176 174 175 0
-177 -72 0
-177 41 0
177 72 -41 0
-178 72 0
-178 -41 0
178 -72 41 0
-179 -177 0
-179 -178 0
179 177 178 0
-180 176 0
-180 179 0
180 -176 -179 0
-181 -73 0
-181 42 0
181 73 -42 0
-182 73 0
-182 -42 0
182 -73 42 0
-183 -181 0
-183 -182 0
183 181 182 0
-184 -74 0
-184 43 0
184 74 -43 0
-185 74 0
-185 -43 0
185 -74 43 0
-186 -184 0
-186 -185 0
186 184 185 0
-187 183 0
-187 186 0
187 -183 -186 0
-188 180 0
-188 187 0
188 -180 -187 0
-189 -77 0
-189 46 0
189 77 -46 0
-190 77 0
-190 -46 0
190 -77 46 0
-191 -189 0
-191 -190 0
191 189 190 0
-192 -75 0
-192 44 0
192 75 -44 0
-193 75 0
-193 -44 0
193 -75 44 0
-194 -192 0
-194 -193 0
194 192 193 0
-195 -76 0
-195 45 0
195 76 -45 0
-196 76 0
-196 -45 0
196 -76 45 0
-197 -195 0
-197 -196 0
197 195 196 0
-198 194 0
-198 197 0
198 -194 -197 0
-199 191 0
-199 198 0
199 -191 -198 0
-200 188 0
-200 199 0
200 -188 -199 0
-201 173 0
-201 200 0
201 -173 -200 0
-202 142 0
-202 201 0
202 -142 -201 0
-203 79 0
-203 -78 0
203 -79 78 0
-204 -79 0
-204 78 0
204 79 -78 0
-205 -203 0
-205 -204 0
205 203 204 0
-206 202 0
-206 -205 0
206 -202 205 0
-207 30 0
-207 16 0
207 -30 -16 0
-208 -17 0
-208 207 0
208 17 -207 0
-209 -8 0
-209 2 0
209 8 -2 0
-210 21 0
-210 16 0
210 -21 -16 0
-211 209 0
-211 -210 0
211 -209 210 0
-212 8 0
-212 1 0
212 -8 -1 0
-213 45 0
-213 16 0
213 -45 -16 0
-214 212 0
-214 -213 0
214 -212 213 0
-215 24 0
-215 16 0
215 -24 -16 0
-216 22 0
-216 16 0
216 -22 -16 0
-217 18 0
-217 16 0
217 -18 -16 0
-218 -216 0
-218 -217 0
218 216 217 0
-219 -215 0
-219 218 0
219 215 -218 0
-220 29 0
-220 16 0
220 -29 -16 0
-221 -219 0
-221 -220 0
221 219 220 0
-222 -221 0
-222 -208 0
222 221 208 0
-223 -214 0
-223 222 0
223 214 -222 0
-224 -211 0
-224 223 0
224 211 -223 0
-225 -208 0
-225 -224 0
225 208 224 0
-226 -48 0
-226 225 0
226 48 -225 0
-227 48 0
-227 -225 0
227 -48 225 0
-228 -226 0
-228 -227 0
228 226 227 0
-229 47 0
-229 228 0
229 -47 -228 0
-230 -4 0
-230 3 0
230 4 -3 0
-231 -6 0
-231 230 0
231 6 -230 0
-232 219 0
-232 231 0
232 -219 -231 0
-233 5 0
-233 232 0
233 -5 -232 0
-234 -13 0
-234 233 0
234 13 -233 0
-235 -22 0
-235 217 0
235 22 -217 0
-236 -215 0
-236 235 0
236 215 -235 0
-237 13 0
-237 236 0
237 -13 -236 0
-238 -18 0
-238 216 0
238 18 -216 0
-239 -215 0
-239 238 0
239 215 -238 0
-240 13 0
-240 239 0
240 -13 -239 0
-241 18 0
-241 216 0
241 -18 -216 0
-242 -215 0
-242 241 0
242 215 -241 0
-243 13 0
-243 242 0
243 -13 -242 0
-244 217 0
-244 -243 0
244 -217 243 0
-245 -240 0
-245 -244 0
245 240 244 0
-246 -237 0
-246 -245 0
246 237 245 0
-247 -234 0
-247 -246 0
247 234 246 0
-248 -49 0
-248 -247 0
248 49 247 0
-249 49 0
-249 247 0
249 -49 -247 0
-250 -248 0
-250 -249 0
250 248 249 0
-251 -209 0
-251 -210 0
251 209 210 0
-252 -212 0
-252 -213 0
252 212 213 0
-253 219 0
-253 -220 0
253 -219 220 0
-254 17 0
-254 16 0
254 -17 -16 0
-255 -207 0
-255 -254 0
255 207 254 0
-256 -253 0
-256 -255 0
256 253 255 0
-257 -252 0
-257 256 0
257 252 -256 0
-258 -251 0
-258 257 0
258 251 -257 0
-259 19 0
-259 16 0
259 -19 -16 0
-260 -13 0
-260 -259 0
260 13 259 0
-261 34 0
-261 16 0
261 -34 -16 0
-262 -32 0
-262 261 0
262 32 -261 0
-263 -260 0
-263 262 0
263 260 -262 0
-264 258 0
-264 263 0
264 -258 -263 0
-265 -224 0
-265 264 0
265 224 -264 0
-266 -50 0
-266 265 0
266 50 -265 0
-267 50 0
-267 -265 0
267 -50 265 0
-268 -266 0
-268 -267 0
268 266 267 0
-269 250 0
-269 268 0
269 -250 -268 0
-270 229 0
-270 269 0
270 -229 -269 0
-271 -51 0
-271 7 0
271 51 -7 0
-272 51 0
-272 -7 0
272 -51 7 0
-273 -271 0
-273 -272 0
273 271 272 0
-274 -211 0
-274 -223 0
274 211 223 0
-275 -52 0
-275 274 0
275 52 -274 0
-276 52 0
-276 -274 0
276 -52 274 0
-277 -275 0
-277 -276 0
277 275 276 0
-278 273 0
-278 277 0
278 -273 -277 0
-279 13 0
-279 233 0
279 -13 -233 0
-280 216 0
-280 -243 0
280 -216 243 0
-281 -237 0
-281 -280 0
281 237 280 0
-282 -279 0
-282 281 0
282 279 -281 0
-283 -53 0
-283 -282 0
283 53 282 0
-284 53 0
-284 282 0
284 -53 -282 0
-285 -283 0
-285 -284 0
285 283 284 0
-286 -54 0
-286 14 0
286 54 -14 0
-287 54 0
-287 -14 0
287 -54 14 0
-288 -286 0
-288 -287 0
288 286 287 0
-289 285 0
-289 288 0
289 -285 -288 0
-290 278 0
-290 289 0
290 -278 -289 0
-291 270 0
-291 290 0
291 -270 -290 0
-292 13 0
-292 218 0
292 -13 -218 0
-293 215 0
-293 -292 0
293 -215 292 0
-294 -243 0
-294 -293 0
294 243 293 0
-295 -55 0
-295 -294 0
295 55 294 0
-296 55 0
-296 294 0
296 -55 -294 0
-297 -295 0
-297 -296 0
297 295 296 0
-298 -56 0
-298 1 0
298 56 -1 0
-299 56 0
-299 -1 0
299 -56 1 0
-300 -298 0
-300 -299 0
300 298 299 0
-301 297 0
-301 300 0
301 -297 -300 0
-302 -57 0
-302 12 0
302 57 -12 0
-303 57 0
-303 -12 0
303 -57 12 0
-304 -302 0
-304 -303 0
304 302 303 0
-305 -58 0
-305 4 0
305 58 -4 0
-306 58 0
-306 -4 0
306 -58 4 0
-307 -305 0
-307 -306 0
307 305 306 0
-308 304 0
-308 307 0
308 -304 -307 0
-309 301 0
-309 308 0
309 -301 -308 0
-310 -59 0
-310 2 0
310 59 -2 0
-311 59 0
-311 -2 0
311 -59 2 0
-312 -310 0
-312 -311 0
312 310 311 0
-313 -221 0
-313 -224 0
313 221 224 0
-314 -60 0
-314 313 0
314 60 -313 0
-315 60 0
-315 -313 0
315 -60 313 0
-316 -314 0
-316 -315 0
316 314 315 0
-317 312 0
-317 316 0
317 -312 -316 0
-318 -5 0
-318 231 0
318 5 -231 0
-319 -207 0
-319 318 0
319 207 -318 0
-320 12 0
-320 207 0
320 -12 -207 0
-321 -319 0
-321 -320 0
321 319 320 0
-322 -61 0
-322 -321 0
322 61 321 0
-323 61 0
-323 321 0
323 -61 -321 0
-324 -322 0
-324 -323 0
324 322 323 0
-325 31 0
-325 16 0
325 -31 -16 0
-326 10 0
-326 -325 0
326 -10 325 0
327 -2 0
327 -326 0
-327 2 326 0
-328 -62 0
-328 -327 0
328 62 327 0
-329 62 0
-329 327 0
329 -62 -327 0
-330 -328 0
-330 -329 0
330 328 329 0
-331 324 0
-331 330 0
331 -324 -330 0
-332 317 0
-332 331 0
332 -317 -331 0
-333 309 0
-333 332 0
333 -309 -332 0
-334 291 0
-334 333 0
334 -291 -333 0
-335 260 0
-335 -262 0
335 -260 262 0
-336 258 0
-336 335 0
336 -258 -335 0
-337 -224 0
-337 336 0
337 224 -336 0
-338 -63 0
-338 337 0
338 63 -337 0
-339 63 0
-339 -337 0
339 -63 337 0
-340 -338 0
-340 -339 0
340 338 339 0
-341 -64 0
-341 15 0
341 64 -15 0
-342 64 0
-342 -15 0
342 -64 15 0
-343 -341 0
-343 -342 0
343 341 342 0
-344 340 0
-344 343 0
344 -340 -343 0
-345 3 0
-345 -261 0
345 -3 261 0
-346 -6 0
-346 345 0
346 6 -345 0
-347 -5 0
-347 346 0
347 5 -346 0
-348 12 0
-348 261 0
348 -12 -261 0
-349 -347 0
-349 -348 0
349 347 348 0
-350 -65 0
-350 -349 0
350 65 349 0
-351 65 0
-351 349 0
351 -65 -349 0
-352 -350 0
-352 -351 0
352 350 351 0
-353 -66 0
-353 3 0
353 66 -3 0
-354 66 0
-354 -3 0
354 -66 3 0
-355 -353 0
-355 -354 0
355 353 354 0
-356 352 0
-356 355 0
356 -352 -355 0
-357 344 0
-357 356 0
357 -344 -356 0
-358 -67 0
-358 11 0
358 67 -11 0
-359 67 0
-359 -11 0
359 -67 11 0
-360 -358 0
-360 -359 0
360 358 359 0
-361 37 0
-361 16 0
361 -37 -16 0
-362 -260 0
-362 -262 0
362 260 262 0
-363 361 0
-363 -362 0
363 -361 362 0
-364 -361 0
-364 362 0
364 361 -362 0
-365 -363 0
-365 -364 0
365 363 364 0
-366 258 0
-366 -365 0
366 -258 365 0
-367 -224 0
-367 366 0
367 224 -366 0
-368 -68 0
-368 367 0
368 68 -367 0
-369 68 0
-369 -367 0
369 -68 367 0
-370 -368 0
-370 -369 0
370 368 369 0
-371 360 0
-371 370 0
371 -360 -370 0
-372 38 0
-372 16 0
372 -38 -16 0
-373 372 0
-373 -362 0
373 -372 362 0
-374 38 0
-374 361 0
374 -38 -361 0
-375 -361 0
-375 -372 0
375 361 372 0
-376 -374 0
-376 -375 0
376 374 375 0
-377 376 0
-377 362 0
377 -376 -362 0
-378 -373 0
-378 -377 0
378 373 377 0
-379 258 0
-379 -378 0
379 -258 378 0
-380 -224 0
-380 379 0
380 224 -379 0
-381 -69 0
-381 380 0
381 69 -380 0
-382 69 0
-382 -380 0
382 -69 380 0
-383 -381 0
-383 -382 0
383 381 382 0
-384 39 0
-384 16 0
384 -39 -16 0
-385 384 0
-385 -362 0
385 -384 362 0
-386 374 0
-386 384 0
386 -374 -384 0
-387 -374 0
-387 -384 0
387 374 384 0
388 -386 0
388 -387 0
-388 386 387 0
-389 362 0
-389 -388 0
389 -362 388 0
-390 -385 0
-390 -389 0
390 385 389 0
-391 258 0
-391 -390 0
391 -258 390 0
-392 -224 0
-392 391 0
392 224 -391 0
-393 -70 0
-393 392 0
393 70 -392 0
-394 70 0
-394 -392 0
394 -70 392 0
-395 -393 0
-395 -394 0
395 393 394 0
-396 383 0
-396 395 0
396 -383 -395 0
-397 371 0
-397 396 0
397 -371 -396 0
-398 357 0
-398 397 0
398 -357 -397 0
-399 40 0
-399 16 0
399 -40 -16 0
-400 362 0
-400 386 0
400 -362 -386 0
-401 399 0
-401 -400 0
401 -399 400 0
-402 -399 0
-402 400 0
402 399 -400 0
-403 -401 0
-403 -402 0
403 401 402 0
-404 258 0
-404 -403 0
404 -258 403 0
-405 -224 0
-405 404 0
405 224 -404 0
-406 -71 0
-406 405 0
406 71 -405 0
-407 71 0
-407 -405 0
407 -71 405 0
-408 -406 0
-408 -407 0
408 406 407 0
-409 41 0
-409 16 0
409 -41 -16 0
-410 11 0
-410 -2 0
410 -11 2 0
-411 9 0
-411 -1 0
411 -9 1 0
-412 -410 0
-412 -411 0
412 410 411 0
-413 -409 0
-413 412 0
413 409 -412 0
-414 -72 0
-414 -413 0
414 72 413 0
-415 72 0
-415 413 0
415 -72 -413 0
-416 -414 0
-416 -415 0
416 414 415 0
-417 408 0
-417 416 0
417 -408 -416 0
-418 -73 0
-418 9 0
418 73 -9 0
-419 73 0
-419 -9 0
419 -73 9 0
-420 -418 0
-420 -419 0
420 418 419 0
-421 -74 0
-421 13 0
421 74 -13 0
-422 74 0
-422 -13 0
422 -74 13 0
-423 -421 0
-423 -422 0
423 421 422 0
-424 420 0
-424 423 0
424 -420 -423 0
-425 417 0
-425 424 0
425 -417 -424 0
-426 -77 0
-426 8 0
426 77 -8 0
-427 77 0
-427 -8 0
427 -77 8 0
-428 -426 0
-428 -427 0
428 426 427 0
-429 -75 0
-429 10 0
429 75 -10 0
-430 75 0
-430 -10 0
430 -75 10 0
-431 -429 0
-431 -430 0
431 429 430 0
-432 -214 0
-432 -224 0
432 214 224 0
-433 -76 0
-433 432 0
433 76 -432 0
-434 76 0
-434 -432 0
434 -76 432 0
-435 -433 0
-435 -434 0
435 433 434 0
-436 431 0
-436 435 0
436 -431 -435 0
-437 428 0
-437 436 0
437 -428 -436 0
-438 425 0
-438 437 0
438 -425 -437 0
-439 398 0
-439 438 0
439 -398 -438 0
-440 334 0
-440 439 0
440 -334 -439 0
-441 440 0
-441 204 0
441 -440 -204 0
-442 375 0
-442 -384 0
442 -375 384 0
-443 -442 0
-443 399 0
443 442 -399 0
-444 -28 0
-444 -25 0
444 28 25 0
445 16 0
445 -444 0
-445 -16 444 0
-446 23 0
-446 16 0
446 -23 -16 0
-447 445 0
-447 -446 0
447 -445 446 0
-448 15 0
-448 447 0
448 -15 -447 0
-449 -2 0
-449 325 0
449 2 -325 0
-450 10 0
-450 449 0
450 -10 -449 0
-451 36 0
-451 16 0
451 -36 -16 0
-452 -446 0
-452 -451 0
452 446 451 0
-453 10 0
-453 452 0
453 -10 -452 0
-454 7 0
-454 453 0
454 -7 -453 0
-455 -23 0
-455 451 0
455 23 -451 0
-456 10 0
-456 455 0
456 -10 -455 0
-457 -7 0
-457 456 0
457 7 -456 0
-458 42 0
-458 16 0
458 -42 -16 0
-459 -446 0
-459 -458 0
459 446 458 0
-460 -15 0
-460 459 0
460 15 -459 0
-461 7 0
-461 460 0
461 -7 -460 0
-462 -23 0
-462 458 0
462 23 -458 0
-463 -15 0
-463 462 0
463 15 -462 0
-464 -7 0
-464 463 0
464 7 -463 0
-465 12 0
-465 -2 0
465 -12 2 0
-466 -12 0
-466 2 0
466 12 -2 0
-467 -465 0
-467 -466 0
467 465 466 0
-468 8 0
-468 -467 0
468 -8 467 0
-469 12 0
-469 -1 0
469 -12 1 0
-470 -12 0
-470 1 0
470 12 -1 0
-471 -469 0
-471 -470 0
471 469 470 0
-472 -8 0
-472 -471 0
472 8 471 0
-473 -468 0
-473 -472 0
473 468 472 0
-474 43 0
-474 16 0
474 -43 -16 0
-475 474 0
-475 -207 0
475 -474 207 0
-476 219 0
-476 475 0
476 -219 -475 0
-477 -4 0
-477 -476 0
477 4 476 0
-478 473 0
-478 -477 0
478 -473 477 0
-479 20 0
-479 16 0
479 -20 -16 0
-480 3 0
-480 -479 0
480 -3 479 0
-481 -3 0
-481 479 0
481 3 -479 0
-482 -480 0
-482 -481 0
482 480 481 0
-483 44 0
-483 16 0
483 -44 -16 0
-484 -8 0
-484 483 0
484 8 -483 0
-485 8 0
-485 -483 0
485 -8 483 0
-486 -484 0
-486 -485 0
486 484 485 0
-487 33 0
-487 16 0
487 -33 -16 0
-488 8 0
-488 -487 0
488 -8 487 0
-489 -8 0
-489 487 0
489 8 -487 0
-490 -488 0
-490 -489 0
490 488 489 0
-491 486 0
-491 490 0
491 -486 -490 0
-492 482 0
-492 491 0
492 -482 -491 0
-493 474 0
-493 -492 0
493 -474 492 0
-494 478 0
-494 -493 0
494 -478 493 0
-495 35 0
-495 16 0
495 -35 -16 0
-496 -3 0
-496 495 0
496 3 -495 0
-497 3 0
-497 -495 0
497 -3 495 0
-498 -496 0
-498 -497 0
498 496 497 0
-499 46 0
-499 16 0
499 -46 -16 0
-500 8 0
-500 -499 0
500 -8 499 0
-501 -8 0
-501 499 0
501 8 -499 0
-502 -500 0
-502 -501 0
502 500 501 0
-503 498 0
-503 502 0
503 -498 -502 0
-504 4 0
-504 -503 0
504 -4 503 0
-505 494 0
-505 -504 0
505 -494 504 0
-506 -464 0
-506 505 0
506 464 -505 0
-507 -461 0
-507 506 0
507 461 -506 0
-508 -457 0
-508 507 0
508 457 -507 0
-509 -454 0
-509 508 0
509 454 -508 0
-510 7 0
-510 -479 0
510 -7 479 0
-511 -7 0
-511 479 0
511 7 -479 0
-512 -510 0
-512 -511 0
512 510 511 0
-513 10 0
-513 -483 0
513 -10 483 0
-514 -10 0
-514 483 0
514 10 -483 0
-515 -513 0
-515 -514 0
515 513 514 0
-516 -15 0
-516 487 0
516 15 -487 0
-517 15 0
-517 -487 0
517 -15 487 0
-518 -516 0
-518 -517 0
518 516 517 0
-519 515 0
-519 518 0
519 -515 -518 0
-520 512 0
-520 519 0
520 -512 -519 0
-521 446 0
-521 -520 0
521 -446 520 0
-522 509 0
-522 -521 0
522 -509 521 0
-523 -450 0
-523 522 0
523 450 -522 0
-524 -448 0
-524 523 0
524 448 -523 0
-525 -443 0
-525 524 0
525 443 -524 0
-526 -525 0
-526 413 0
526 525 -413 0
-527 78 0
-527 526 0
527 -78 -526 0
-528 -17 0
-528 -16 0
528 17 16 0
-529 -19 0
-529 -18 0
529 19 18 0
-530 528 0
-530 529 0
530 -528 -529 0
-531 -21 0
-531 -20 0
531 21 20 0
-532 -23 0
-532 -22 0
532 23 22 0
-533 531 0
-533 532 0
533 -531 -532 0
-534 530 0
-534 533 0
534 -530 -533 0
-535 -25 0
-535 -24 0
535 25 24 0
-536 -27 0
-536 -26 0
536 27 26 0
-537 535 0
-537 536 0
537 -535 -536 0
-538 -29 0
-538 -28 0
538 29 28 0
-539 -31 0
-539 -30 0
539 31 30 0
-540 538 0
-540 539 0
540 -538 -539 0
-541 537 0
-541 540 0
541 -537 -540 0
-542 534 0
-542 541 0
542 -534 -541 0
-543 -33 0
-543 -32 0
543 33 32 0
-544 -35 0
-544 -34 0
544 35 34 0
-545 543 0
-545 544 0
545 -543 -544 0
-546 -37 0
-546 -36 0
546 37 36 0
-547 -39 0
-547 -38 0
547 39 38 0
-548 546 0
-548 547 0
548 -546 -547 0
-549 545 0
-549 548 0
549 -545 -548 0
-550 -41 0
-550 -40 0
550 41 40 0
-551 -43 0
-551 -42 0
551 43 42 0
-552 550 0
-552 551 0
552 -550 -551 0
-553 -45 0
-553 -44 0
553 45 44 0
-554 -46 0
-554 553 0
554 46 -553 0
-555 552 0
-555 554 0
555 -552 -554 0
-556 549 0
-556 555 0
556 -549 -555 0
-557 542 0
-557 556 0
557 -542 -556 0
-558 -78 0
-558 557 0
558 78 -557 0
-559 -527 0
-559 -558 0
559 527 558 0
-560 -441 0
-560 559 0
560 441 -559 0
-561 -206 0
-561 560 0
561 206 -560 0
561 0
